k = 10;
b = 0;
AtomicConstraints =  [|
5, 1|
	5, 2|
	5, 3|
	5, 4|
	5, 8|
	5, 10|
	6, 1|
	6, 2|
	6, 3|
	6, 4|
	6, 8|
	6, 10|
	7, 1|
	7, 2|
	7, 3|
	7, 4|
	7, 8|
	7, 10|
	8, 1|
	8, 2|
	8, 3|
	8, 4|
	9, 1|
	9, 2|
	9, 3|
	9, 4|
	10, 1|
	10, 2|
	10, 3|
	10, 4|];
DisjunctiveConstraints =  [|6, 5, 6, 7|
	9, 8, 9, 10|];
SoftAtomicConstraints =  [|
2, 1|
4, 3|
1, 4|
5, 6|
6, 7|
8, 9|
9, 10|];
DirectSuccessors =  [];
